(set-logic ALL)
(declare-fun i1 () Int)
(declare-fun it178 () Int)
(declare-fun it179 () Int)
(declare-fun i2 () Int)
(declare-fun i3 () Int)
(declare-fun it180 () Int)
(declare-fun i4 () Int)
(declare-fun it181 () Int)
(declare-fun i5 () Int)
(declare-fun it182 () Int)
(declare-fun i6 () Int)
(declare-fun it183 () Int)
(declare-fun i7 () Int)
(declare-fun it184 () Int)
(declare-fun it315 () Int)
(declare-fun it316 () Int)
(declare-fun it317 () Int)
(declare-fun it318 () Int)
(declare-fun it319 () Int)
(declare-fun it320 () Int)
(declare-fun it321 () Int)
(declare-fun it322 () Int)
(declare-fun it323 () Int)
(declare-fun it324 () Int)
(declare-fun it325 () Int)
(declare-fun it326 () Int)
(declare-fun it327 () Int)
(declare-fun it328 () Int)
(declare-fun it117 () Int)
(assert (= (+ i1 (- 1)) 0))
(assert (= (+ it178 (- 2)) 0))
(assert (= (+ (* i2 (- 1)) it179 (- 1)) 0))
(assert (= (+ it180 (* i3 (- 1))) 0))
(assert (= (+ it181 (* i4 (- 1))) 0))
(assert (= (+ it182 (* i5 (- 1))) 0))
(assert (= (+ it183 (* i6 (- 1))) 0))
(assert (= (+ it184 (* i7 (- 1))) 0))
(assert (and (> it183 0) (> it180 0) (= (+ it178 (- 2)) 0)))
(assert (= (+ it315 (- 3)) 0))
(assert (= (+ it316 (* it179 (- 1)) (- 1)) 0))
(assert (= (+ (* it180 (- 1)) it317) 0))
(assert (= (+ (* it180 (- 1)) it318) 0))
(assert (= (+ it319 (* it184 (- 1))) 0))
(assert (= (+ (* it183 (- 1)) it320) 0))
(assert (= (+ (* it184 (- 1)) it321) 0))
(assert (let ((a!1 (< (+ (exp it318 2) (exp it320 5) (+ 0 (* it319 (- 1)))) (+ 0 0))))
  (and a!1 (= (+ it315 (- 3)) 0) (> it318 0))))
(assert (= (+ it322 (- 3)) 0))
(assert (= (+ (* it316 (- 1)) it323 (- 1)) 0))
(assert (= (+ (* it317 (- 1)) it324) 0))
(assert (= (+ it325 (* it318 2)) 0))
(assert (let ((a!1 (+ (+ 0 (+ (* it319 (- 3)) it326)) (* (exp it320 3) (+ 0 2)))))
  (= a!1 (+ 0 0))))
(assert (= (+ (* it320 (- 1)) it327) 0))
(assert (= (+ it328 (* it321 (- 1))) 0))
(assert (let ((a!1 (* (* (exp 9 (+ it117 (- 1))) (exp it327 3)) (+ 0 (- 1))))
      (a!2 (* (exp (exp 4 (+ it117 (- 1))) (+ 0 2)) (exp it325 2)))
      (a!4 (> (+ (* (exp it325 2) (+ 0 (- 1)))
                 (+ 0 it326)
                 (* (exp it327 5) (+ 0 (- 1))))
              (+ 0 0)))
      (a!5 (* (* (exp 9 (+ it117 (- 1))) (exp it327 3)) (+ 0 (- 3))))
      (a!6 (* (* (+ 0 it326) (exp 9 (+ it117 (- 1)))) (+ 0 3)))
      (a!8 (> (+ (* (exp it327 3) (+ 0 (- 2)))
                 (* (exp it325 2) (+ 0 (- 4)))
                 (+ 0 (* it326 3))
                 (* (exp it327 5) (+ 0 (- 1))))
              (+ 0 0))))
(let ((a!3 (+ a!1
              (* a!2 (+ 0 (- 1)))
              (exp it327 3)
              (* (+ 0 it326) (exp 9 (+ it117 (- 1))))
              (* (exp it327 5) (+ 0 (- 1)))))
      (a!7 (> (+ a!5
                 (* a!2 (+ 0 (- 4)))
                 (exp it327 3)
                 a!6
                 (* (exp it327 5) (+ 0 (- 1))))
              (+ 0 0))))
  (and (>= (+ it117 (- 1)) 0)
       (> a!3 (+ 0 0))
       (> it325 0)
       a!4
       a!7
       (>= (+ (* it322 (- 1)) 3) 0)
       (> (* it325 2) 0)
       (>= (+ it322 (- 3)) 0)
       a!8))))
(check-sat)
